p wcnf 141 168 169 
1 19 -43 0 
1 -95 10 0 
1 -121 52 0 
1 -67 109 0 
1 -96 -72 0 
1 81 83 0 
1 -133 134 0 
1 124 -100 0 
1 -113 73 0 
1 -19 59 0 
1 -8 -30 0 
1 -124 54 0 
1 91 -133 0 
1 -53 -71 0 
1 104 -80 0 
1 102 -34 0 
1 -106 -79 0 
1 -109 -7 0 
1 -94 -7 0 
1 -3 72 0 
1 -45 67 0 
1 12 -132 0 
1 -87 -49 0 
1 -40 102 0 
1 -107 -140 0 
1 -35 -29 0 
1 -91 120 0 
1 -73 -112 0 
1 37 -108 0 
1 -30 -16 0 
1 -30 4 0 
1 -96 88 0 
1 -16 -7 0 
1 -78 122 0 
1 -82 -94 0 
1 -28 -8 0 
1 -64 -83 0 
1 -104 135 0 
1 -86 118 0 
1 -10 68 0 
1 -123 78 0 
1 37 13 0 
1 80 82 0 
1 -40 -51 0 
1 6 35 0 
1 -88 100 0 
1 -73 44 0 
1 -137 98 0 
1 131 -114 0 
1 40 27 0 
1 98 -90 0 
1 -64 139 0 
1 89 -121 0 
1 54 -64 0 
1 -138 18 0 
1 63 -133 0 
1 -42 32 0 
1 -11 139 0 
1 47 100 0 
1 80 42 0 
1 120 132 0 
1 -42 -106 0 
1 -87 137 0 
1 -120 125 0 
1 47 -99 0 
1 -81 50 0 
1 -95 -115 0 
1 -120 -53 0 
1 -128 1 0 
1 -17 119 0 
1 -138 100 0 
1 -42 103 0 
1 -37 -34 0 
1 -94 -118 0 
1 -114 123 0 
1 -25 102 0 
1 45 -56 0 
1 5 -65 0 
1 107 18 0 
1 77 2 0 
1 -67 -11 0 
1 18 66 0 
1 80 -44 0 
1 63 -89 0 
1 126 -96 0 
1 -59 102 0 
1 38 -100 0 
1 -141 -29 0 
1 -49 3 0 
1 83 88 0 
1 -84 48 0 
1 76 123 0 
1 133 -30 0 
1 41 -24 0 
1 -111 -45 0 
1 -133 36 0 
1 13 -86 0 
1 92 -84 0 
1 134 129 0 
1 139 -119 0 
1 -55 34 0 
1 -118 -78 0 
1 -102 113 0 
1 141 -15 0 
1 -129 -3 0 
1 -1 82 0 
1 112 86 0 
1 -114 -61 0 
1 -51 -24 0 
1 -87 38 0 
1 135 -118 0 
1 -14 -120 0 
1 -36 59 0 
1 -69 -40 0 
1 12 -114 0 
1 58 34 0 
1 -77 -90 0 
1 65 15 0 
1 25 97 0 
1 -132 -58 0 
1 18 32 0 
1 -41 -20 0 
1 26 132 0 
1 136 -70 0 
1 5 -53 0 
1 138 -122 0 
1 92 137 0 
1 104 26 0 
1 -12 124 0 
1 128 -117 0 
1 -101 74 0 
1 2 -140 0 
1 -5 -104 0 
1 -41 136 0 
1 -56 51 0 
1 47 -21 0 
1 110 37 0 
1 -48 90 0 
1 -13 126 0 
1 -6 129 0 
1 85 -129 0 
1 57 -35 0 
1 63 82 0 
1 -26 129 0 
1 106 114 0 
1 -133 -141 0 
1 -38 93 0 
1 -82 -132 0 
1 65 53 0 
1 9 -33 0 
1 -78 113 0 
1 132 -31 0 
1 -78 52 0 
1 112 74 0 
1 8 80 0 
1 -28 -41 0 
1 -119 42 0 
1 86 107 0 
1 91 -61 0 
1 -51 -59 0 
1 -121 -86 0 
1 -99 -140 0 
1 -140 -12 0 
1 111 132 0 
1 -135 -64 0 
1 -118 122 0 
1 6 1 0 
1 -123 -94 0 
